
Gurobi 10.0.1 (linux64) logging started Sun Nov 26 15:37:24 2023

Set parameter LogFile to value "ArtificialInstance/ExperimentV2/S2T4K1/BaSp/gurobi1.txt"
Gurobi Optimizer version 10.0.1 build v10.0.1rc0 (linux64)

CPU model: AMD EPYC 7H12 64-Core Processor, instruction set [SSE2|AVX|AVX2]
Thread count: 128 physical cores, 128 logical processors, using up to 32 threads

Academic license 656792 - for non-commercial use only - registered to b.___@student.vu.nl
Optimize a model with 1105 rows, 1680 columns and 5360 nonzeros
Model fingerprint: 0x258eb79c
Variable types: 0 continuous, 1680 integer (1680 binary)
Coefficient statistics:
  Matrix range     [1e+00, 1e+00]
  Objective range  [2e+00, 2e+01]
  Bounds range     [1e+00, 1e+00]
  RHS range        [1e+00, 1e+00]
Found heuristic solution: objective 641.0328958
Presolve time: 0.01s
Presolved: 1105 rows, 1680 columns, 5360 nonzeros
Variable types: 0 continuous, 1680 integer (1680 binary)

Root relaxation: objective 3.291937e+01, 739 iterations, 0.01 seconds (0.01 work units)

    Nodes    |    Current Node    |     Objective Bounds      |     Work
 Expl Unexpl |  Obj  Depth IntInf | Incumbent    BestBd   Gap | It/Node Time

     0     0   32.91937    0  168  641.03290   32.91937  94.9%     -    0s
H    0     0                     128.4997336   32.91937  74.4%     -    0s
H    0     0                      56.0367471   32.91937  41.3%     -    0s
H    0     0                      50.9292228   37.28146  26.8%     -    0s
H    0     0                      50.8199773   37.28146  26.6%     -    0s
     0     0   38.40332    0  151   50.81998   38.40332  24.4%     -    0s
H    0     0                      48.1483433   38.40332  20.2%     -    0s
     0     0   40.71366    0  166   48.14834   40.71366  15.4%     -    0s
     0     0   42.33652    0  266   48.14834   42.33652  12.1%     -    0s
     0     0   42.46506    0  266   48.14834   42.46506  11.8%     -    0s
     0     0   42.46506    0  159   48.14834   42.46506  11.8%     -    0s
     0     0   42.46506    0   89   48.14834   42.46506  11.8%     -    0s
     0     0   42.46506    0  239   48.14834   42.46506  11.8%     -    0s
     0     0   42.46506    0  258   48.14834   42.46506  11.8%     -    0s
     0     0   42.46506    0  250   48.14834   42.46506  11.8%     -    0s
H    0     0                      48.1181009   42.46506  11.7%     -    0s
     0     0   42.71703    0  272   48.11810   42.71703  11.2%     -    0s
     0     0   42.72021    0  263   48.11810   42.72021  11.2%     -    0s
     0     0   43.16810    0  281   48.11810   43.16810  10.3%     -    0s
     0     0   43.16810    0  266   48.11810   43.16810  10.3%     -    0s
     0     2   43.16810    0  266   48.11810   43.16810  10.3%     -    0s

Cutting planes:
  Gomory: 26
  Clique: 2
  Zero half: 24
  RLT: 12

Explored 55 nodes (6802 simplex iterations) in 0.65 seconds (0.30 work units)
Thread count was 32 (of 128 available processors)

Solution count 7: 48.1181 48.1483 50.82 ... 641.033

Optimal solution found (tolerance 1.00e-04)
Best objective 4.811810091140e+01, best bound 4.811415122399e+01, gap 0.0082%
